; ADD PUSH 0x00 ADD DUP2 SWAP1 => DUP3 SWAP2 ADD
(set-option :produce-proofs true)
; 
(set-info :status unknown)
(declare-fun storage_t ((_ BitVec 256) (_ BitVec 256) (_ BitVec 256) Int (_ BitVec 256)) (_ BitVec 256))
(declare-fun storage_s ((_ BitVec 256) (_ BitVec 256) (_ BitVec 256) Int (_ BitVec 256)) (_ BitVec 256))
(declare-fun exc_halt_t (Int) Bool)
(declare-fun exc_halt_s (Int) Bool)
(declare-fun stack_t ((_ BitVec 256) (_ BitVec 256) (_ BitVec 256) Int (_ BitVec 6)) (_ BitVec 256))
(declare-fun stack_s ((_ BitVec 256) (_ BitVec 256) (_ BitVec 256) Int (_ BitVec 6)) (_ BitVec 256))
(declare-fun sc_t (Int) (_ BitVec 6))
(declare-fun sc_s (Int) (_ BitVec 6))
(declare-fun used_gas_t ((_ BitVec 256) (_ BitVec 256) (_ BitVec 256) Int) Int)
(declare-fun used_gas_s ((_ BitVec 256) (_ BitVec 256) (_ BitVec 256) Int) Int)
(assert
 (exists ((x_0 (_ BitVec 256)) (x_1 (_ BitVec 256)) (x_2 (_ BitVec 256)) )(let (($x9999 (forall ((w (_ BitVec 256)) )(let ((?x11057 (storage_t x_0 x_1 x_2 3 w)))
 (let ((?x4682 (storage_s x_0 x_1 x_2 5 w)))
 (= ?x4682 ?x11057))))
 ))
 (let (($x3666 (exc_halt_t 3)))
 (let (($x3979 (exc_halt_s 5)))
 (let (($x10851 (= $x3979 $x3666)))
 (let (($x9961 (forall ((n (_ BitVec 6)) )(let ((?x5425 (stack_t x_0 x_1 x_2 3 n)))
 (let ((?x3772 (stack_s x_0 x_1 x_2 5 n)))
 (let (($x5303 (= ?x3772 ?x5425)))
 (let ((?x9769 (sc_t 3)))
 (let (($x1584 (bvsle ?x9769 n)))
 (or $x1584 $x5303)))))))
 ))
 (let ((?x9769 (sc_t 3)))
 (let ((?x805 (sc_s 5)))
 (let (($x7113 (= ?x805 ?x9769)))
 (let ((?x1569 (used_gas_t x_0 x_1 x_2 0)))
 (let ((?x7452 (used_gas_s x_0 x_1 x_2 0)))
 (let (($x8829 (= ?x7452 ?x1569)))
 (let (($x10739 (forall ((w (_ BitVec 256)) )(let ((?x1610 (storage_t x_0 x_1 x_2 0 w)))
 (let ((?x5343 (storage_s x_0 x_1 x_2 0 w)))
 (= ?x5343 ?x1610))))
 ))
 (let (($x56 (exc_halt_t 0)))
 (let (($x57 (exc_halt_s 0)))
 (let (($x58 (= $x57 $x56)))
 (let (($x11009 (forall ((n (_ BitVec 6)) )(let ((?x63 (sc_t 0)))
 (let (($x11226 (bvsle ?x63 n)))
 (let ((?x157 (stack_t x_0 x_1 x_2 0 n)))
 (let ((?x8885 (stack_s x_0 x_1 x_2 0 n)))
 (let (($x2095 (= ?x8885 ?x157)))
 (or $x2095 $x11226)))))))
 ))
 (let ((?x63 (sc_t 0)))
 (let ((?x72 (sc_s 0)))
 (let (($x73 (= ?x72 ?x63)))
 (let (($x8704 (= $x3666 (or (exc_halt_t 2) (not (bvsle (_ bv0 6) (bvadd (_ bv62 6) (sc_t 2))))))))
 (let (($x7652 (forall ((w (_ BitVec 256)) )(let ((?x7456 (storage_t x_0 x_1 x_2 2 w)))
 (let ((?x11057 (storage_t x_0 x_1 x_2 3 w)))
 (= ?x11057 ?x7456))))
 ))
 (let (($x7889 (forall ((n (_ BitVec 6)) )(let ((?x10039 (stack_t x_0 x_1 x_2 2 n)))
 (let ((?x5425 (stack_t x_0 x_1 x_2 3 n)))
 (let (($x11307 (= ?x5425 ?x10039)))
 (let ((?x2714 (sc_t 2)))
 (let ((?x8565 (bvadd (_ bv62 6) ?x2714)))
 (let (($x5395 (bvsle ?x8565 n)))
 (or $x5395 $x11307))))))))
 ))
 (let ((?x2714 (sc_t 2)))
 (let ((?x10393 (bvadd (_ bv63 6) ?x2714)))
 (let (($x11788 (= ?x9769 ?x10393)))
 (let ((?x8451 (used_gas_t x_0 x_1 x_2 3)))
 (let ((?x8565 (bvadd (_ bv62 6) ?x2714)))
 (let ((?x1711 (stack_t x_0 x_1 x_2 2 ?x8565)))
 (let ((?x3397 (stack_t x_0 x_1 x_2 2 ?x10393)))
 (let ((?x10381 (bvadd (_ bv63 6) ?x9769)))
 (let ((?x7216 (stack_t x_0 x_1 x_2 3 ?x10381)))
 (let (($x5252 (exc_halt_t 2)))
 (let (($x3454 (= $x5252 (or (exc_halt_t 1) (not (bvsle (_ bv0 6) (bvadd (_ bv61 6) (sc_t 1))))))))
 (let (($x8524 (forall ((w (_ BitVec 256)) )(let ((?x7131 (storage_t x_0 x_1 x_2 1 w)))
 (let ((?x7456 (storage_t x_0 x_1 x_2 2 w)))
 (= ?x7456 ?x7131))))
 ))
 (let (($x3303 (forall ((n (_ BitVec 6)) )(let ((?x1489 (stack_t x_0 x_1 x_2 1 n)))
 (let ((?x10039 (stack_t x_0 x_1 x_2 2 n)))
 (let (($x11519 (= ?x10039 ?x1489)))
 (or (bvsle (bvadd (_ bv61 6) (sc_t 1)) n) $x11519)))))
 ))
 (let ((?x4513 (sc_t 1)))
 (let (($x11635 (= ?x2714 ?x4513)))
 (let ((?x8416 (used_gas_t x_0 x_1 x_2 2)))
 (let (($x11247 (= ?x8416 (+ 3 (used_gas_t x_0 x_1 x_2 1)))))
 (let (($x10171 (= ?x1711 (stack_t x_0 x_1 x_2 1 (bvadd (_ bv62 6) ?x4513)))))
 (let ((?x930 (bvadd (_ bv63 6) ?x4513)))
 (let ((?x9631 (stack_t x_0 x_1 x_2 1 ?x930)))
 (let ((?x8215 (bvadd (_ bv61 6) ?x2714)))
 (let ((?x8580 (stack_t x_0 x_1 x_2 2 ?x8215)))
 (let (($x9896 (not (= ((_ extract 6 6) (bvadd (_ bv1 7) (concat (_ bv0 1) ?x63))) (_ bv0 1)))))
 (let (($x7814 (exc_halt_t 1)))
 (let (($x4800 (= $x7814 (or $x56 (not (bvsle (_ bv0 6) (bvadd (_ bv61 6) ?x63))) $x9896))))
 (let (($x7911 (forall ((w (_ BitVec 256)) )(let ((?x1610 (storage_t x_0 x_1 x_2 0 w)))
 (let ((?x7131 (storage_t x_0 x_1 x_2 1 w)))
 (= ?x7131 ?x1610))))
 ))
 (let (($x2806 (forall ((n (_ BitVec 6)) )(let ((?x157 (stack_t x_0 x_1 x_2 0 n)))
 (let ((?x1489 (stack_t x_0 x_1 x_2 1 n)))
 (let (($x5072 (= ?x1489 ?x157)))
 (let ((?x63 (sc_t 0)))
 (let ((?x7184 (bvadd (_ bv61 6) ?x63)))
 (let (($x4010 (bvsle ?x7184 n)))
 (or $x4010 $x5072))))))))
 ))
 (let (($x2740 (= ?x4513 (bvadd (_ bv1 6) ?x63))))
 (let ((?x38 (used_gas_t x_0 x_1 x_2 1)))
 (let (($x3634 (= ?x38 (+ 3 ?x1569))))
 (let (($x4027 (= (stack_t x_0 x_1 x_2 1 (bvadd (_ bv63 6) ?x63)) (stack_t x_0 x_1 x_2 0 (bvadd (_ bv63 6) ?x63)))))
 (let ((?x7768 (bvadd (_ bv62 6) ?x63)))
 (let ((?x10388 (stack_t x_0 x_1 x_2 0 ?x7768)))
 (let (($x11302 (= (stack_t x_0 x_1 x_2 1 ?x7768) ?x10388)))
 (let ((?x7184 (bvadd (_ bv61 6) ?x63)))
 (let ((?x9303 (stack_t x_0 x_1 x_2 0 ?x7184)))
 (let (($x6077 (= $x3979 (or (exc_halt_s 4) (not (bvsle (_ bv0 6) (bvadd (_ bv62 6) (sc_s 4))))))))
 (let (($x3019 (forall ((w (_ BitVec 256)) )(let ((?x4409 (storage_s x_0 x_1 x_2 4 w)))
 (let ((?x4682 (storage_s x_0 x_1 x_2 5 w)))
 (= ?x4682 ?x4409))))
 ))
 (let (($x5983 (forall ((n (_ BitVec 6)) )(let ((?x4305 (sc_s 4)))
 (let ((?x4102 (bvadd (_ bv62 6) ?x4305)))
 (let (($x11250 (bvsle ?x4102 n)))
 (let ((?x10597 (stack_s x_0 x_1 x_2 4 n)))
 (let ((?x3772 (stack_s x_0 x_1 x_2 5 n)))
 (let (($x522 (= ?x3772 ?x10597)))
 (or $x522 $x11250))))))))
 ))
 (let ((?x4305 (sc_s 4)))
 (let (($x4390 (= ?x805 ?x4305)))
 (let ((?x7602 (used_gas_s x_0 x_1 x_2 5)))
 (let (($x11159 (= ?x7602 (+ 3 (used_gas_s x_0 x_1 x_2 4)))))
 (let ((?x194 (bvadd (_ bv63 6) ?x4305)))
 (let ((?x11079 (stack_s x_0 x_1 x_2 4 ?x194)))
 (let ((?x813 (bvadd (_ bv62 6) ?x805)))
 (let ((?x2941 (stack_s x_0 x_1 x_2 5 ?x813)))
 (let ((?x4102 (bvadd (_ bv62 6) ?x4305)))
 (let ((?x2433 (stack_s x_0 x_1 x_2 4 ?x4102)))
 (let ((?x674 (bvadd (_ bv63 6) ?x805)))
 (let ((?x7511 (stack_s x_0 x_1 x_2 5 ?x674)))
 (let (($x11534 (not (= ((_ extract 6 6) (bvadd (_ bv1 7) (concat (_ bv0 1) (sc_s 3)))) (_ bv0 1)))))
 (let (($x5881 (not (bvsle (_ bv0 6) (bvadd (_ bv62 6) (sc_s 3))))))
 (let (($x292 (exc_halt_s 3)))
 (let (($x7172 (exc_halt_s 4)))
 (let (($x7127 (forall ((w (_ BitVec 256)) )(let ((?x3003 (storage_s x_0 x_1 x_2 3 w)))
 (let ((?x4409 (storage_s x_0 x_1 x_2 4 w)))
 (= ?x4409 ?x3003))))
 ))
 (let (($x1286 (forall ((n (_ BitVec 6)) )(let ((?x7775 (stack_s x_0 x_1 x_2 3 n)))
 (let ((?x10597 (stack_s x_0 x_1 x_2 4 n)))
 (let (($x7205 (= ?x10597 ?x7775)))
 (let ((?x275 (sc_s 3)))
 (let ((?x895 (bvadd (_ bv62 6) ?x275)))
 (let (($x5807 (bvsle ?x895 n)))
 (or $x5807 $x7205))))))))
 ))
 (let (($x6388 (= ?x4305 (bvadd (_ bv1 6) (sc_s 3)))))
 (let ((?x8755 (used_gas_s x_0 x_1 x_2 4)))
 (let (($x8060 (= ?x8755 (+ 3 (used_gas_s x_0 x_1 x_2 3)))))
 (let ((?x275 (sc_s 3)))
 (let ((?x4842 (bvadd (_ bv63 6) ?x275)))
 (let ((?x11521 (stack_s x_0 x_1 x_2 3 ?x4842)))
 (let ((?x895 (bvadd (_ bv62 6) ?x275)))
 (let ((?x2567 (stack_s x_0 x_1 x_2 3 ?x895)))
 (let (($x1454 (= $x292 (or (exc_halt_s 2) (not (bvsle (_ bv0 6) (bvadd (_ bv62 6) (sc_s 2))))))))
 (let (($x6554 (forall ((w (_ BitVec 256)) )(let ((?x7163 (storage_s x_0 x_1 x_2 2 w)))
 (let ((?x3003 (storage_s x_0 x_1 x_2 3 w)))
 (= ?x3003 ?x7163))))
 ))
 (let (($x4938 (forall ((n (_ BitVec 6)) )(let ((?x218 (sc_s 2)))
 (let ((?x1890 (bvadd (_ bv62 6) ?x218)))
 (let (($x6718 (bvsle ?x1890 n)))
 (let ((?x978 (stack_s x_0 x_1 x_2 2 n)))
 (let ((?x7775 (stack_s x_0 x_1 x_2 3 n)))
 (let (($x1103 (= ?x7775 ?x978)))
 (or $x1103 $x6718))))))))
 ))
 (let ((?x218 (sc_s 2)))
 (let ((?x9933 (bvadd (_ bv63 6) ?x218)))
 (let (($x5283 (= ?x275 ?x9933)))
 (let ((?x421 (used_gas_s x_0 x_1 x_2 3)))
 (let ((?x1890 (bvadd (_ bv62 6) ?x218)))
 (let ((?x4080 (stack_s x_0 x_1 x_2 2 ?x1890)))
 (let ((?x1357 (stack_s x_0 x_1 x_2 2 ?x9933)))
 (let (($x9717 (not (= ((_ extract 6 6) (bvadd (_ bv1 7) (concat (_ bv0 1) (sc_s 1)))) (_ bv0 1)))))
 (let (($x189 (exc_halt_s 1)))
 (let (($x247 (exc_halt_s 2)))
 (let (($x1376 (forall ((w (_ BitVec 256)) )(let ((?x7378 (storage_s x_0 x_1 x_2 1 w)))
 (let ((?x7163 (storage_s x_0 x_1 x_2 2 w)))
 (= ?x7163 ?x7378))))
 ))
 (let (($x9695 (forall ((n (_ BitVec 6)) )(let ((?x6257 (stack_s x_0 x_1 x_2 1 n)))
 (let ((?x978 (stack_s x_0 x_1 x_2 2 n)))
 (let (($x6047 (= ?x978 ?x6257)))
 (or (bvsle (sc_s 1) n) $x6047)))))
 ))
 (let (($x11012 (= ?x218 (bvadd (_ bv1 6) (sc_s 1)))))
 (let ((?x8467 (used_gas_s x_0 x_1 x_2 2)))
 (let (($x1598 (= ?x8467 (+ 3 (used_gas_s x_0 x_1 x_2 1)))))
 (let (($x11023 (= $x189 (or $x57 (not (bvsle (_ bv0 6) (bvadd (_ bv62 6) ?x72)))))))
 (let (($x5204 (forall ((w (_ BitVec 256)) )(let ((?x5343 (storage_s x_0 x_1 x_2 0 w)))
 (let ((?x7378 (storage_s x_0 x_1 x_2 1 w)))
 (= ?x7378 ?x5343))))
 ))
 (let (($x3672 (forall ((n (_ BitVec 6)) )(let ((?x72 (sc_s 0)))
 (let ((?x7864 (bvadd (_ bv62 6) ?x72)))
 (let (($x7671 (bvsle ?x7864 n)))
 (let ((?x8885 (stack_s x_0 x_1 x_2 0 n)))
 (let ((?x6257 (stack_s x_0 x_1 x_2 1 n)))
 (or (= ?x6257 ?x8885) $x7671)))))))
 ))
 (let ((?x9691 (used_gas_s x_0 x_1 x_2 1)))
 (let (($x4889 (= ?x9691 (+ 3 ?x7452))))
 (let ((?x7864 (bvadd (_ bv62 6) ?x72)))
 (let ((?x2268 (stack_s x_0 x_1 x_2 0 ?x7864)))
 (let ((?x11152 (bvadd (_ bv63 6) ?x72)))
 (let ((?x2216 (stack_s x_0 x_1 x_2 0 ?x11152)))
 (let ((?x154 (sc_s 1)))
 (let ((?x7609 (bvadd (_ bv63 6) ?x154)))
 (let ((?x8947 (stack_s x_0 x_1 x_2 1 ?x7609)))
 (let (($x7877 (forall ((w (_ BitVec 256)) )(let ((?x5343 (storage_s x_0 x_1 x_2 0 w)))
 (= ?x5343 (_ bv0 256))))
 ))
 (let (($x395 (= ?x7452 0)))
 (let (($x7049 (not $x57)))
 (let (($x6783 (= (stack_s x_0 x_1 x_2 0 (_ bv2 6)) x_2)))
 (let (($x7797 (= (stack_s x_0 x_1 x_2 0 (_ bv1 6)) x_1)))
 (let (($x11071 (= (stack_s x_0 x_1 x_2 0 (_ bv0 6)) x_0)))
 (let (($x5315 (= ?x72 (_ bv3 6))))
 (and $x5315 $x11071 $x7797 $x6783 $x7049 $x395 $x7877 (= ?x8947 (bvadd ?x2216 ?x2268)) $x4889 (= ?x154 ?x11152) $x3672 $x5204 $x11023 (= (stack_s x_0 x_1 x_2 2 ?x154) (_ bv0 256)) $x1598 $x11012 $x9695 $x1376 (= $x247 (or $x189 $x9717)) (= ?x11521 (bvadd ?x1357 ?x4080)) (= ?x421 (+ 3 ?x8467)) $x5283 $x4938 $x6554 $x1454 (= ?x11079 ?x2567) (= (stack_s x_0 x_1 x_2 4 ?x895) ?x2567) (= (stack_s x_0 x_1 x_2 4 ?x4842) ?x11521) $x8060 $x6388 $x1286 $x7127 (= $x7172 (or $x292 $x5881 $x11534)) (= ?x7511 ?x2433) (= ?x2941 ?x11079) $x11159 $x4390 $x5983 $x3019 $x6077 (= ?x9631 ?x9303) (= (stack_t x_0 x_1 x_2 1 ?x7184) ?x9303) $x11302 $x4027 $x3634 $x2740 $x2806 $x7911 $x4800 (= ?x3397 (stack_t x_0 x_1 x_2 1 (bvadd (_ bv61 6) ?x4513))) (= ?x8580 ?x9631) $x10171 $x11247 $x11635 $x3303 $x8524 $x3454 (= ?x7216 (bvadd ?x3397 ?x1711)) (= ?x8451 (+ 3 ?x8416)) $x11788 $x7889 $x7652 $x8704 $x73 $x11009 $x58 $x10739 $x8829 (not (and $x7113 $x9961 $x10851 $x9999))))))))))))))))))))))))))))))))))))))))))))))))))))))))))))))))))))))))))))))))))))))))))))))))))))))))))))))))))))))))))))))))
 )
(check-sat)
(get-proof)
